54081
26, 55, 28, 6, 3, 43, 40, 51, 13, 41, 32, 24, 50, 20, 7, 37, 5, 35, 38, 8, 44, 19, 48, 17, 53, 34, 54, 47, 30, 4, 18, 12, 9, 14, 2, 45, 11, 25, 31, 27, 1, 33, 42, 52, 15, 36, 46, 39, 16, 10, 22, 29, 21, 23, 49
